Route #1: 324 367 368 369 370 371 372 373 374 375 376 377 366 365 364 363 407 408 409 410 411 412 413 414 415 416 417 418 419 420 421 422 423 424 425 426 427 428 429 430 431 432 433 389 390 391
Route #2: 234 278 277 276 275 319 320 321 322 323 279 280 281 325 326 327 328 329 330 331 332 333 334 378 379 380 381 382 383 384 385 386 387 388 344 345 346 347 348 304 302 303 300 301 257 213
Route #3: 219 263 307 308 265 266 310 309 352 351 395 396 353 354 398 399 400 401 402 403 404 405 406 397 440 439 434 435 436 437 438 394 392 393 349 350 306 305 261 262 258 259 260 216
Route #4: 161 162 160 204 205 206 202 203 247 248 249 293 294 292 291 335 336 337 338 339 340 341 342 343 299 297 298 295 296 252 250 251 253 254 255 256 212 207 208 209 210 211 167 168
Route #5: 142 143 144 147 148 149 150 151 195 193 194 192 191 235 236 237 238 282 283 284 285 286 287 288 289 290 246 239 240 241 242 243 244 245 201 196 197 198 199 200 156 157 158 159
Route #6: 96 140 141 185 186 187 188 184 183 182 226 227 228 272 270 271 269 313 314 315 316 312 311 355 356 357 358 359 360 361 362 318 317 273 274 230 229 231 232 233 189 190 146 145 101 102
Route #7: 5 49 93 94 95 92 136 180 181 137 138 139 134 135 133 177 178 179 223 267 268 224 225 222 221 264 220 217 218 174 175 176 169 170 214 215 171 172 173 129 126 127 128 84 82 83
Route #8: 13 57 58 59 56 55 54 53 97 98 99 100 103 104 105 106 107 109 108 152 153 154 155 111 110 112 113 114 115 116 117 118 120 119 163 164 165 166 122 121 123 124 125 81 80 79
Route #9: 35 36 37 38 39 40 41 42 43 87 88 45 46 85 86 130 131 132 89 90 91 47 48 50 51 52 8 7 6 44 1 2 3 4
Route #10: 9 10 11 12 14 15 16 60 61 62 63 64 65 66 67 68 69 70 71 72 73 74 75 76 77 78 34 33 17 18 19 20 21 22 23 24 25 26 27 28 29 30 31 32
Cost 13237.694795172054